c FILE /home/rafael/Documents/HappySet/MIHS/inputs/happygen/output/graph_scale_free_k7_p0.2_v100_20241127_083856.txt
c SOURCE This is a scale-free graph formed for the happy graph colouring problem.
c DESCRIPTION It was generated using the problem generator of Rhyd Lewis
c
c GRAPH STATS
c Seed                             = -518465531
c Number of Nodes                  = 100
c Number of colours k              = 7
c Number of pre-assignments        = 20
c Number of links per new node     = 5
c Density                          = 0.0979798
c 
c The degrees of nodes 1 to 100, respectively, are as follows 
c [35, 34, 28, 28, 27, 24, 23, 23, 21, 19, 18, 17, 17, 16, 16, 16, 15, 15, 13, 13, 13, 12, 12, 12, 12, 11, 
c  11, 10, 10, 10, 10, 9, 9, 9, 9, 8, 8, 8, 8, 8, 8, 8, 8, 8, 8, 7, 7, 7, 7, 7, 7, 
c  7, 7, 7, 7, 6, 6, 6, 6, 6, 6, 6, 6, 6, 6, 6, 6, 6, 6, 6, 6, 6, 6, 5, 5, 5, 
c  5, 5, 5, 5, 5, 5, 5, 5, 5, 5, 5, 5, 5, 5, 5, 5, 5, 5, 5, 5, 5, 5, 5, 5] 
c  
p edge 100 485 7
e 1 2
e 1 3
e 1 6
e 1 7
e 1 8
e 1 9
e 1 10
e 1 11
e 1 12
e 1 14
e 1 18
e 1 19
e 1 22
e 1 23
e 1 25
e 1 28
e 1 32
e 1 37
e 1 41
e 1 43
e 1 45
e 1 46
e 1 48
e 1 50
e 1 54
e 1 55
e 1 61
e 1 65
e 1 67
e 1 68
e 1 70
e 1 79
e 1 80
e 1 89
e 1 96
e 2 3
e 2 4
e 2 7
e 2 8
e 2 9
e 2 11
e 2 13
e 2 14
e 2 15
e 2 18
e 2 21
e 2 29
e 2 30
e 2 33
e 2 36
e 2 39
e 2 40
e 2 46
e 2 51
e 2 53
e 2 55
e 2 56
e 2 58
e 2 60
e 2 61
e 2 67
e 2 70
e 2 78
e 2 85
e 2 93
e 2 94
e 2 95
e 2 97
e 3 4
e 3 5
e 3 7
e 3 9
e 3 10
e 3 11
e 3 12
e 3 14
e 3 19
e 3 20
e 3 21
e 3 22
e 3 23
e 3 25
e 3 26
e 3 28
e 3 30
e 3 31
e 3 46
e 3 47
e 3 51
e 3 73
e 3 77
e 3 78
e 3 94
e 3 99
e 4 5
e 4 6
e 4 7
e 4 8
e 4 9
e 4 10
e 4 11
e 4 12
e 4 16
e 4 19
e 4 22
e 4 23
e 4 24
e 4 26
e 4 29
e 4 33
e 4 35
e 4 38
e 4 46
e 4 50
e 4 60
e 4 69
e 4 72
e 4 77
e 4 84
e 4 94
e 5 6
e 5 7
e 5 9
e 5 10
e 5 13
e 5 15
e 5 16
e 5 18
e 5 19
e 5 21
e 5 25
e 5 26
e 5 35
e 5 37
e 5 45
e 5 47
e 5 48
e 5 50
e 5 55
e 5 60
e 5 64
e 5 80
e 5 85
e 5 88
e 5 91
e 6 7
e 6 11
e 6 14
e 6 20
e 6 30
e 6 31
e 6 32
e 6 34
e 6 38
e 6 44
e 6 49
e 6 53
e 6 55
e 6 58
e 6 64
e 6 71
e 6 75
e 6 76
e 6 87
e 6 90
e 6 93
e 7 8
e 7 9
e 7 11
e 7 14
e 7 19
e 7 22
e 7 28
e 7 29
e 7 31
e 7 38
e 7 48
e 7 50
e 7 52
e 7 59
e 7 63
e 7 84
e 7 95
e 8 10
e 8 11
e 8 16
e 8 22
e 8 23
e 8 24
e 8 32
e 8 35
e 8 41
e 8 44
e 8 51
e 8 56
e 8 60
e 8 66
e 8 74
e 8 76
e 8 82
e 8 90
e 8 91
e 9 11
e 9 12
e 9 13
e 9 14
e 9 17
e 9 21
e 9 28
e 9 42
e 9 43
e 9 45
e 9 51
e 9 57
e 9 59
e 9 86
e 9 100
e 10 27
e 10 32
e 10 34
e 10 41
e 10 52
e 10 53
e 10 62
e 10 68
e 10 75
e 10 80
e 10 81
e 10 88
e 10 96
e 10 100
e 11 20
e 11 24
e 11 26
e 11 28
e 11 29
e 11 31
e 11 54
e 11 77
e 11 90
e 11 97
e 12 15
e 12 22
e 12 27
e 12 32
e 12 33
e 12 36
e 12 37
e 12 51
e 12 52
e 12 73
e 12 82
e 12 87
e 12 98
e 13 15
e 13 16
e 13 19
e 13 22
e 13 23
e 13 30
e 13 33
e 13 36
e 13 53
e 13 54
e 13 57
e 13 74
e 13 75
e 13 99
e 14 17
e 14 20
e 14 33
e 14 45
e 14 47
e 14 48
e 14 69
e 14 73
e 14 80
e 14 94
e 15 16
e 15 17
e 15 18
e 15 21
e 15 22
e 15 36
e 15 40
e 15 49
e 15 57
e 15 67
e 15 81
e 15 88
e 16 17
e 16 27
e 16 37
e 16 39
e 16 40
e 16 47
e 16 48
e 16 63
e 16 76
e 16 77
e 16 82
e 17 27
e 17 28
e 17 36
e 17 47
e 17 56
e 17 60
e 17 64
e 17 70
e 17 78
e 17 84
e 17 85
e 18 23
e 18 40
e 18 49
e 18 50
e 18 56
e 18 71
e 18 78
e 18 83
e 18 87
e 18 92
e 18 93
e 19 20
e 19 26
e 19 39
e 19 46
e 19 59
e 19 76
e 19 82
e 20 42
e 20 56
e 20 66
e 20 68
e 20 75
e 20 79
e 20 83
e 20 99
e 21 25
e 21 41
e 21 59
e 21 63
e 21 65
e 21 67
e 21 80
e 21 99
e 22 34
e 22 38
e 22 40
e 22 58
e 23 24
e 23 29
e 23 62
e 23 74
e 23 79
e 23 82
e 24 28
e 24 41
e 24 43
e 24 44
e 24 66
e 24 85
e 24 86
e 24 92
e 25 30
e 25 35
e 25 39
e 25 44
e 25 78
e 25 86
e 25 87
e 25 95
e 26 39
e 26 42
e 26 52
e 26 64
e 26 83
e 26 89
e 27 38
e 27 65
e 27 71
e 27 74
e 27 83
e 27 96
e 27 99
e 28 58
e 28 65
e 28 86
e 29 34
e 29 35
e 29 49
e 29 58
e 29 72
e 30 32
e 30 38
e 30 44
e 30 62
e 30 92
e 31 46
e 31 59
e 31 64
e 31 86
e 31 87
e 31 89
e 32 72
e 32 81
e 32 100
e 33 37
e 33 42
e 33 49
e 33 65
e 34 36
e 34 42
e 34 45
e 34 73
e 34 81
e 35 43
e 35 90
e 35 97
e 35 98
e 36 55
e 36 57
e 37 54
e 37 67
e 37 79
e 38 61
e 38 77
e 39 61
e 39 66
e 39 91
e 40 71
e 40 81
e 40 90
e 41 52
e 41 70
e 41 76
e 42 66
e 42 91
e 42 93
e 43 55
e 43 72
e 43 85
e 43 89
e 44 69
e 44 84
e 44 98
e 45 89
e 45 91
e 45 97
e 46 63
e 47 61
e 47 96
e 48 62
e 48 69
e 49 75
e 49 96
e 50 74
e 50 84
e 51 68
e 51 94
e 52 71
e 52 83
e 53 54
e 53 58
e 53 69
e 54 72
e 54 79
e 55 97
e 56 57
e 57 62
e 59 70
e 60 63
e 61 92
e 62 95
e 63 73
e 64 98
e 65 68
e 66 98
e 67 93
e 68 88
e 69 92
e 70 88
e 71 95
e 72 100
e 73 100
n 2 1
n 9 1
n 10 3
n 20 3
n 22 2
n 24 6
n 29 1
n 54 3
n 59 1
n 61 1
n 68 3
n 69 1
n 71 4
n 73 6
n 87 3
n 89 7
n 93 1
n 96 3
n 97 1
n 98 5
